!r2scan-3c opt freq 
%pal 
nprocs 8 
end 
%maxcore 12000
 
* XYZ 0 1 
O      2.09337700     -6.85838700     -6.46577000
C      2.76732900     -6.62621600     -5.57028500
O      3.49329300     -6.40937900     -4.70383900
Ni      3.52946500     -5.92387100     -2.93295000
N      5.28787000     -6.54941500     -2.79659000
C      5.67041700     -7.77796300     -2.88440600
C      4.80962100     -8.91813200     -2.67703900
C      5.32924300    -10.20334800     -2.87550900
C      4.53520100    -11.31813700     -2.69705900
C      3.21118600    -11.17435000     -2.31151200
C      2.68577100     -9.90686000     -2.09968100
C      3.47003600     -8.78692000     -2.28294500
C      6.21029100     -5.50709900     -2.92064200
C      7.50059700     -5.58655700     -2.39483100
C      8.34925500     -4.49945900     -2.47681100
C      7.93322600     -3.32596900     -3.08362500
C      6.65650500     -3.23900900     -3.61509000
C      5.79800700     -4.31604100     -3.53086900
C      5.79052500     -5.12776800      0.37495400
C      5.21814300     -3.99339800     -0.41878600
C      5.79841600     -2.76514600     -0.43965900
C      5.25244900     -1.71126300     -1.21113800
C      5.94626000     -0.50291800     -1.39383100
C      5.43517300      0.49125000     -2.18470500
C      4.20924400      0.30020600     -2.83161000
C      3.49784900     -0.85523000     -2.64562600
C      3.97999100     -1.88484600     -1.81196200
C      3.26196700     -3.10930300     -1.62224300
C      1.84602600     -3.16568600     -1.98041400
C      1.27028800     -4.19054200     -2.75972700
O      1.81857300     -5.32579000     -3.07812100
O      3.50672000     -5.43918900     -1.18027300
C      3.97146500     -4.21705900     -1.10885000
C     -0.03938800     -3.97747900     -3.32098800
C     -0.56813000     -5.02899600     -4.25015000
C     -0.76943500     -2.88122400     -2.98979300
C     -0.29389000     -1.93234200     -2.05687000
C     -1.09832200     -0.86268700     -1.62689800
C     -0.65353600      0.01255600     -0.67358700
C      0.60739200     -0.17985600     -0.09827500
C      1.41686200     -1.20234800     -0.51481900
C      1.01385800     -2.08826000     -1.53661300
H      6.70537400     -8.00545800     -3.15018600
H      6.36217800    -10.31820800     -3.17250200
H      4.94752500    -12.30330200     -2.85674800
H      2.59082700    -12.04701600     -2.17406800
H      1.65788000     -9.79507000     -1.78973700
H      3.04124800     -7.79238200     -2.08823600
H      7.81711400     -6.48175200     -1.88018300
H      9.34015400     -4.56594200     -2.05248200
H      8.59676300     -2.47666100     -3.13372600
H      6.32420000     -2.32393500     -4.08082900
H      4.79168100     -4.23243600     -3.94638400
H      5.36801600     -5.11681000      1.38015700
H      5.51966200     -6.07751700     -0.08114900
H      6.87184500     -5.04389200      0.45416900
H      6.71697000     -2.58767100      0.10304000
H      6.90485200     -0.38119400     -0.90844100
H      5.97846700      1.41458100     -2.32555400
H      3.82551900      1.07040600     -3.48508800
H      2.56049400     -0.99361700     -3.16305500
H     -0.55970000     -5.99979500     -3.75622800
H     -1.58301000     -4.79348700     -4.56021600
H      0.06172300     -5.10730500     -5.13732800
H     -1.75537200     -2.74214000     -3.41273600
H     -2.08554400     -0.75531800     -2.05521800
H     -1.27608500      0.83234000     -0.34543700
H      0.93954800      0.48092500      0.68967000
H      2.37225000     -1.34920600     -0.03469700

*