!r2scan-3c opt freq 
%pal 
nprocs 8 
end 
%maxcore 12000
 
* XYZ 0 1 
O      6.82631600     -6.46566700     -4.72392300
C      5.79325100     -5.82840800     -4.80956000
O      5.54050400     -4.77469100     -4.11585600
Ni      3.75397200     -4.48323300     -4.18317000
N      3.80778800     -5.04216800     -5.93930300
C      4.65610000     -6.22932500     -5.78084200
C      3.83289000     -7.38891000     -5.26576400
C      2.73540900     -7.81416800     -6.01021000
C      1.93530800     -8.84945000     -5.56457100
C      2.22163000     -9.48101800     -4.36452200
C      3.32224700     -9.08088100     -3.62806000
C      4.12627300     -8.04449000     -4.07637200
C      4.23759200     -4.14004300     -6.89252900
C      4.50530200     -2.80437400     -6.55386700
C      4.82555700     -1.87321000     -7.51914600
C      4.89815600     -2.24537200     -8.85215200
C      4.66016900     -3.56538700     -9.20108200
C      4.33415000     -4.50294400     -8.24307900
N      3.74469300     -3.94335600     -2.38817400
C      3.92723300     -5.31138300     -1.90348200
C      2.42110000     -3.45450100     -2.01387200
C      1.40703500     -4.16380200     -2.89509900
N      1.90008000     -4.17950400     -4.28090200
C      1.08544700     -5.15654100     -5.01767900
C      1.72420800     -2.84122100     -4.91118500
C      0.30738300     -2.31860400     -4.94760200
C     -0.52052200     -2.60461900     -6.02832100
C     -1.81905100     -2.12938600     -6.07010300
C     -2.30981900     -1.35260400     -5.03418200
C     -1.48871200     -1.04002200     -3.96512000
C     -0.18974600     -1.51670200     -3.92558700
C      4.80812300     -3.05380200     -1.87216300
C      4.86523000     -2.97119400     -0.36747200
C      5.66975100     -3.84548600      0.35477600
C      5.70793200     -3.79165100      1.73671000
C      4.94504400     -2.85807700      2.41749000
C      4.15444400     -1.97058400      1.70817800
C      4.11691100     -2.02681900      0.32594700
H      5.10762300     -6.52555500     -6.74019500
H      2.51540300     -7.32249500     -6.94627300
H      1.08859000     -9.16961700     -6.15501700
H      1.59713100    -10.28987900     -4.01366900
H      3.56310200     -9.58188300     -2.70116000
H      5.00636900     -7.77013600     -3.51490000
H      4.50449400     -2.53445600     -5.49321200
H      5.03820000     -0.85293700     -7.23132100
H      5.15239600     -1.51853200     -9.60883900
H      4.72793500     -3.86758000    -10.23681600
H      4.14206300     -5.52595400     -8.53337600
H      3.31482000     -6.02709700     -2.46470800
H      4.97225100     -5.60038300     -2.00910200
H      3.65851000     -5.39165800     -0.83881900
H      2.38157800     -2.37635000     -2.18627100
H      2.20637900     -3.63434300     -0.95029100
H      1.28520400     -5.19659600     -2.56076800
H      0.42192800     -3.68346300     -2.83381600
H      0.01953200     -4.92701800     -4.91776900
H      1.36765300     -5.14482400     -6.06678200
H      1.26955100     -6.15750200     -4.62996000
H      2.35009900     -2.12231200     -4.37631500
H      2.09323900     -2.92140800     -5.93608200
H     -0.13946400     -3.19308800     -6.84963700
H     -2.44805500     -2.36145500     -6.91640800
H     -3.32307100     -0.98166700     -5.06587200
H     -1.85717200     -0.41944100     -3.16171400
H      0.44608700     -1.24404000     -3.09438900
H      4.63657100     -2.05732300     -2.29153400
H      5.75743300     -3.42745100     -2.26326200
H      6.28186200     -4.56451100     -0.16932600
H      6.33867200     -4.47686400      2.28326200
H      4.97472700     -2.81468300      3.49591600
H      3.56851500     -1.22925500      2.23159200
H      3.50906900     -1.31600600     -0.21686100

*