!r2scan-3c opt freq 
%pal 
nprocs 8 
end 
%maxcore 12000
 
* XYZ 0 1 
O     -1.06421100     -8.14201000     -5.17704600
C     -0.34516000     -7.17244000     -5.07317900
O     -0.75759200     -5.99801900     -4.71933300
Ni      0.57644700     -4.92922700     -4.10734200
N      1.70067200     -5.84212600     -5.26646800
C      1.19466800     -7.23836400     -5.34097500
C      1.42699800     -7.96242300     -6.63366700
C      0.76091300     -7.56299800     -7.78794400
C      0.95471100     -8.23742300     -8.97797400
C      1.81044800     -9.32495200     -9.03132300
C      2.46478900     -9.73904300     -7.88464400
C      2.27394300     -9.06123200     -6.69356500
C      1.98033200     -5.21392600     -6.46702500
C      3.01333600     -5.65304300     -7.30838300
C      3.32864100     -4.95337900     -8.45433900
C      2.64729600     -3.79499600     -8.79379600
C      1.63077900     -3.34017500     -7.96925700
C      1.29958200     -4.04051700     -6.82856100
N      1.99321900     -3.87286300     -3.44323500
C      2.58981800     -4.84911900     -2.50943900
C      1.41307600     -2.75254000     -2.68215700
C      0.15351700     -3.23160800     -1.97902000
N     -0.61102700     -4.05022100     -2.93145600
C     -1.48205400     -4.96053000     -2.17265800
C     -1.44404400     -3.19624900     -3.82550400
C     -2.46843400     -2.33842500     -3.12668700
C     -2.16728800     -1.03210800     -2.75500100
C     -3.10208900     -0.24875400     -2.10033900
C     -4.35601100     -0.75952200     -1.81413500
C     -4.67562800     -2.05001100     -2.20157000
C     -3.74036700     -2.83181800     -2.85568500
C      3.07583700     -3.33103300     -4.30891100
C      4.17810800     -2.60614200     -3.57617700
C      5.29835700     -3.29485100     -3.12312300
C      6.31037600     -2.63544300     -2.44803400
C      6.22282300     -1.27238400     -2.22243600
C      5.12528900     -0.57087700     -2.69066600
C      4.11405600     -1.23312600     -3.36424200
H      1.64577100     -7.81011200     -4.51432100
H      0.08404300     -6.72233000     -7.74715000
H      0.43275300     -7.91602900     -9.86760500
H      1.96124600     -9.85243900     -9.96225100
H      3.12630900    -10.59339600     -7.91712400
H      2.78755300     -9.39004700     -5.80031700
H      3.56341000     -6.54518500     -7.05087800
H      4.12318700     -5.31477900     -9.09159100
H      2.90175100     -3.25564500     -9.69374600
H      1.08281100     -2.44485900     -8.23052300
H      0.47042700     -3.71682600     -6.18979400
H      1.81570200     -5.38394800     -1.95438100
H      3.25528700     -4.35329800     -1.79332200
H      3.15763200     -5.57987100     -3.08379700
H      1.16506300     -1.95719900     -3.38892300
H      2.13355300     -2.35227100     -1.95644200
H     -0.43919100     -2.38958800     -1.60240500
H      0.42400100     -3.84949600     -1.11969900
H     -0.87139600     -5.66019600     -1.59942600
H     -2.12834300     -4.40829900     -1.48201400
H     -2.09127200     -5.53959800     -2.86410100
H     -1.94885200     -3.87307400     -4.52111500
H     -0.77083200     -2.54779500     -4.39638700
H     -1.19957400     -0.61155300     -2.99518300
H     -2.85127100      0.76330700     -1.81849700
H     -5.08561300     -0.14958900     -1.30309500
H     -5.65870100     -2.44752200     -1.99807700
H     -4.00416400     -3.83019300     -3.17132600
H      3.50212100     -4.16767300     -4.86301900
H      2.61461900     -2.65393900     -5.03160500
H      5.38693700     -4.35421900     -3.31342700
H      7.17256100     -3.18630000     -2.10264900
H      7.01198700     -0.75690500     -1.69617100
H      5.05820400      0.49584700     -2.53585500
H      3.27205600     -0.67046200     -3.74199300

*