!r2scan-3c opt freq 
%pal 
nprocs 8 
end 
%maxcore 12000
 
* XYZ 0 1 
O     -3.00752500      1.36189100     -8.01521800
C     -2.08432100      1.93046100     -7.47529100
O     -2.14558100      2.47131200     -6.30448000
Ni     -0.54141000      2.45966900     -5.45425600
N      0.24241400      2.52528500     -7.13163200
C     -0.69669600      2.10793600     -8.17358800
C     -0.92421000      3.12628200     -9.25569900
C     -1.27072300      4.43002000     -8.91641600
C     -1.49925800      5.37277500     -9.89924700
C     -1.39540700      5.02343100    -11.23543100
C     -1.07023000      3.72361200    -11.58093400
C     -0.83563500      2.78007900    -10.59684600
C      1.13018200      3.52781100     -7.43000600
C      1.28647300      4.63037000     -6.57489300
C      2.23251900      5.60279800     -6.82875600
C      3.04672000      5.50961400     -7.94293300
C      2.88997300      4.43761600     -8.80995100
C      1.94591700      3.46494300     -8.57102300
P     -1.45082500      2.36363100     -3.46525800
C     -1.84464300      0.68956700     -2.88275700
C     -1.19745500      0.04989600     -1.83306300
C     -1.51097500     -1.26514400     -1.53693500
C     -2.45996600     -1.94280100     -2.28386500
C     -3.10078400     -1.30824200     -3.33761400
C     -2.78995700      0.00214000     -3.64311000
C     -2.93839500      3.32193200     -3.07037900
C     -3.85973000      2.94193300     -2.10053000
C     -4.95863400      3.74487400     -1.85268600
C     -5.14251700      4.91727400     -2.56863800
C     -4.23033000      5.29130300     -3.54272700
C     -3.12994700      4.49416200     -3.79497100
C     -0.21532100      2.94536600     -2.25147800
C     -0.53449200      3.34823100     -0.96293900
C      0.47267900      3.72373800     -0.08982800
C      1.79683900      3.68311900     -0.49744100
C      2.12391400      3.28893100     -1.78452900
C      1.11968500      2.93405300     -2.67563000
P      1.37214500      2.36653800     -4.39564400
C      1.44813500      0.56841800     -4.06789800
C      0.57363800     -0.25261700     -4.77272400
C      0.52457700     -1.60906700     -4.50987800
C      1.34959600     -2.15011100     -3.53777700
C      2.22998500     -1.33799200     -2.83970800
C      2.28214500      0.01890200     -3.10068300
C      3.08063100      2.77614800     -4.83285700
C      3.62463300      4.02225200     -4.53301900
C      4.89860600      4.34070700     -4.96205900
C      5.62629900      3.43320900     -5.71525800
C      5.07662600      2.20462300     -6.04159200
C      3.80692300      1.87519400     -5.60562200
H     -0.39253700      1.14422400     -8.60917600
H     -1.36521400      4.70088200     -7.87382100
H     -1.76448600      6.38342000     -9.62345200
H     -1.57344200      5.76108000    -12.00460500
H     -0.99678700      3.44299400    -12.62205000
H     -0.58467100      1.76508200    -10.87155800
H      0.59664800      4.73389300     -5.73105500
H      2.32351700      6.44985000     -6.16266400
H      3.78507800      6.27083800     -8.14531100
H      3.51648000      4.36222700     -9.68747900
H      1.83720600      2.63307600     -9.24980200
H     -0.44900600      0.57241800     -1.25351900
H     -1.00768900     -1.76316800     -0.72100600
H     -2.69658700     -2.96993700     -2.04839900
H     -3.83425500     -1.83969400     -3.92547300
H     -3.26132400      0.50558600     -4.47834000
H     -3.72191600      2.01841900     -1.55412600
H     -5.67815100      3.45235600     -1.10167700
H     -6.00624700      5.53546100     -2.37305900
H     -4.38460800      6.19771300     -4.10900500
H     -2.41816400      4.75197500     -4.57089500
H     -1.56855300      3.36970500     -0.64846400
H      0.22555100      4.04306700      0.91166800
H      2.58070400      3.96345100      0.19064700
H      3.15912700      3.26153500     -2.09340900
H     -0.07046400      0.18678200     -5.54030000
H     -0.15950700     -2.24112900     -5.05590500
H      1.30830500     -3.20760800     -3.32334500
H      2.87478300     -1.76481600     -2.08532500
H      2.96461200      0.65533200     -2.55436600
H      3.04214500      4.74158800     -3.97420200
H      5.32171700      5.30471600     -4.72094100
H      6.61762800      3.68957700     -6.05771800
H      5.63725800      1.50398400     -6.64240200
H      3.36715900      0.92206600     -5.86551300

*