!r2scan-3c opt freq 
%pal 
nprocs 8 
end 
%maxcore 12000
 
* XYZ 0 1 
O     -7.58832600     -1.76873600     -6.23967300
C     -6.43698200     -1.42897100     -6.08146600
O     -5.99556200     -0.83856700     -5.02404100
Ni     -4.19307800     -0.67900200     -4.89721400
N     -4.13837500     -0.95459300     -6.73284300
C     -5.33186300     -1.70302400     -7.14098400
C     -5.84718400     -1.27352100     -8.48773700
C     -5.75179100      0.05364800     -8.88697900
C     -6.26767500      0.45568300    -10.10425900
C     -6.89647000     -0.45977500    -10.93118200
C     -7.01037400     -1.77960300    -10.53071500
C     -6.48724700     -2.18500600     -9.31640500
C     -3.09729500     -0.93736100     -7.62083700
C     -2.18720900      0.13529800     -7.60618900
C     -1.15772500      0.22443000     -8.51718100
C     -0.98524000     -0.75616700     -9.47969900
C     -1.87522200     -1.81772500     -9.51956000
C     -2.91265100     -1.91380500     -8.61809800
P     -2.02799000     -0.50276400     -4.63711900
C     -1.67522700      1.23597300     -4.21926800
C     -2.64820700      2.17258800     -4.55664400
C     -2.48854800      3.50064800     -4.20954300
C     -1.35928700      3.89678200     -3.51151800
C     -0.39750400      2.96482100     -3.15531800
C     -0.55316300      1.63435400     -3.50122100
C     -0.62169700     -1.15439000     -5.58165900
C     -0.72993200     -2.48261900     -5.98401700
C      0.29047100     -3.07579100     -6.70070500
C      1.42615400     -2.34604500     -7.01388100
C      1.53568500     -1.02445100     -6.61433800
C      0.51344800     -0.42210000     -5.90315300
C     -1.70916000     -1.22914500     -2.98318000
C     -0.51763700     -1.82003500     -2.58646000
C     -0.39168600     -2.31521600     -1.29828600
C     -1.44632900     -2.22308000     -0.40363700
C     -2.63974500     -1.63612100     -0.79128900
C     -2.77209500     -1.13760300     -2.07902500
P     -4.29622600     -0.37321900     -2.72923100
C     -4.26853700      1.29897100     -2.01731600
C     -3.25635600      1.78477600     -1.19999800
C     -3.30551900      3.09479200     -0.75628100
C     -4.35602400      3.91863700     -1.12415600
C     -5.36602300      3.43620900     -1.94307200
C     -5.31995700      2.13206500     -2.39522300
C     -5.59818200     -1.21560600     -1.78555600
C     -6.17643500     -0.69508600     -0.63353500
C     -7.15423700     -1.41850100      0.02643000
C     -7.55823300     -2.65192600     -0.45822500
C     -6.98445700     -3.17101700     -1.60824100
C     -6.00675900     -2.45467700     -2.27074500
H     -5.17456600     -2.79624100     -7.13428900
H     -5.26762100      0.76809900     -8.23734400
H     -6.18355600      1.48960100    -10.40788000
H     -7.30074600     -0.14445100    -11.88242800
H     -7.50775000     -2.49725600    -11.16760900
H     -6.58389200     -3.21526100     -9.00447600
H     -2.33937100      0.93074900     -6.88411000
H     -0.48645500      1.07183200     -8.48210100
H     -0.17753900     -0.68956600    -10.19286800
H     -1.75579700     -2.58877900    -10.26815400
H     -3.58684100     -2.75234400     -8.68852500
H     -3.54018300      1.83572800     -5.08718800
H     -3.24515600      4.22389300     -4.47349700
H     -1.23186000      4.93292200     -3.23594800
H      0.47528300      3.27553300     -2.59972300
H      0.18660700      0.90364500     -3.20391400
H     -1.63018000     -3.03359900     -5.74054300
H      0.20046900     -4.10269200     -7.02158400
H      2.22349000     -2.80572800     -7.57835200
H      2.41874200     -0.45601500     -6.86698500
H      0.58841100      0.61696600     -5.61759200
H      0.30371000     -1.90571800     -3.28436500
H      0.53377300     -2.78079300     -0.99312800
H     -1.34104000     -2.61650700      0.59645200
H     -3.47017900     -1.57146100     -0.10185300
H     -2.43265100      1.14565600     -0.91463700
H     -2.51839400      3.47349300     -0.12082700
H     -4.38651800      4.94004600     -0.77484000
H     -6.18308100      4.08059600     -2.23183100
H     -6.08833200      1.73892900     -3.04939000
H     -5.86845600      0.27187200     -0.25993400
H     -7.60703500     -1.01444700      0.92028800
H     -8.32838600     -3.20612600      0.05752100
H     -7.30861700     -4.12679900     -1.99167900
H     -5.56426600     -2.83649300     -3.18325000

*