!r2scan-3c opt freq 
%pal 
nprocs 8 
end 
%maxcore 12000
 
* XYZ 0 1 
O      4.69944700      5.97987200     -2.95136000
C      4.80656600      5.14585600     -2.09541700
O      3.98090800      4.63263700     -1.31573000
Ni      4.57017800      3.17090600     -0.40405800
N      6.27443100      3.87597800     -0.61095000
C      6.33499500      4.47494800     -1.88692900
C      7.35496100      5.52967600     -2.16165600
C      7.32816500      6.73955900     -1.47420700
C      8.26053900      7.72055200     -1.75070600
C      9.22721700      7.50974800     -2.72008400
C      9.25070800      6.31559300     -3.41921300
C      8.31714900      5.33252700     -3.14467100
C      6.96491300      4.43493600      0.43855100
C      8.34731800      4.66295500      0.39596700
C      8.98935700      5.22423600      1.47938800
C      8.28160800      5.57824400      2.61881700
C      6.91850800      5.32953200      2.68460700
C      6.27101800      4.74693200      1.61652800
C      0.87164100      1.38739900      0.70572900
C      2.35781000      1.59325200      0.57027400
C      3.19184400      0.68591100      1.21356300
C      4.57339800      0.68310000      1.06832800
C      5.29946200     -0.53218900      1.58462900
N      5.23379600      1.66525000      0.47505600
C      6.61834200      1.42304200      0.21803200
C      6.98937600      1.02886200     -1.07908600
C      5.93093500      0.83237400     -2.12335700
C      8.32594700      0.82255400     -1.37412700
C      9.29560800      0.98299100     -0.39949100
C      8.92346700      1.33866500      0.88138700
C      7.59164000      1.55516100      1.21358400
C      7.25189100      1.91416400      2.62943900
N      2.82231700      2.55293700     -0.20997400
C      1.82756700      3.34352800     -0.85957500
C      1.40418500      2.99714900     -2.14584700
C      2.05461000      1.85381100     -2.86544300
C      0.41074800      3.75151000     -2.75092000
C     -0.14849400      4.83633000     -2.10109800
C      0.29794500      5.19142300     -0.84122800
C      1.28640200      4.45688300     -0.20576700
C      1.80897500      4.85971200      1.14014900
H      6.33573500      3.71442200     -2.67955900
H      6.56768400      6.91445400     -0.72676100
H      8.22942900      8.65599400     -1.21190800
H      9.95512000      8.27799100     -2.93575400
H      9.99626000      6.14937200     -4.18327000
H      8.33818200      4.40076100     -3.69301500
H      8.90814300      4.36768300     -0.47699100
H     10.05585300      5.38981300      1.43538900
H      8.79087400      6.03370500      3.45477100
H      6.36311300      5.58988700      3.57403700
H      5.20092900      4.53981100      1.65258700
H      0.66193400      0.57351000      1.39393200
H      0.38265500      2.28903300      1.06690400
H      0.43468200      1.14989300     -0.26326000
H      2.73927500     -0.10821500      1.78366500
H      4.60787500     -1.36421900      1.68406400
H      5.72766600     -0.32884000      2.56365700
H      6.10866700     -0.82002000      0.91772800
H      5.18067500      1.63839800     -2.06121800
H      6.36316200      0.81701500     -3.12096000
H      5.40438000     -0.10874800     -1.95829700
H      8.60917000      0.52966000     -2.37501200
H     10.33637000      0.82523600     -0.63939300
H      9.67465300      1.45585000      1.64887300
H      6.21006200      2.20601500      2.72510800
H      7.44537400      1.06508400      3.28618500
H      7.87871500      2.73734100      2.96596400
H      2.08393500      0.95705300     -2.24740700
H      3.08417200      2.12294600     -3.10942700
H      1.53009600      1.63044600     -3.79106000
H      0.07955700      3.48924000     -3.74548200
H     -0.91998200      5.41675400     -2.58469900
H     -0.11943100      6.05606800     -0.34538700
H      1.43023000      4.20851300      1.92908900
H      1.52596600      5.88324300      1.37127500
H      2.89985700      4.78286100      1.14202400

*