!r2scan-3c opt freq 
%pal 
nprocs 8 
end 
%maxcore 12000
 
* XYZ 0 1 
O     -3.72380400     -9.95144300      0.99195100
C     -3.56575900     -8.78094400      1.22421500
O     -2.65878800     -7.99762400      0.86688700
Ni     -2.77506500     -6.25387200      1.39813800
N     -3.94889100     -6.88785800      2.68577400
C     -4.68652600     -7.95402200      2.10307500
C     -5.55887300     -8.74402900      3.04332400
C     -6.02461600     -8.14126900      4.20982000
C     -6.86261800     -8.82757100      5.06790500
C     -7.25632900    -10.12184200      4.77341100
C     -6.81853700    -10.71680800      3.60353100
C     -5.98280400    -10.03158200      2.73883000
C     -3.24993400     -7.15062000      3.84220300
C     -2.90918100     -8.44540900      4.28285800
C     -2.19311300     -8.61718500      5.44838100
C     -1.81413700     -7.52849600      6.22005500
C     -2.15985400     -6.24757300      5.81015200
C     -2.86601300     -6.05729300      4.64415100
C     -1.86050300     -2.96119000      0.07941700
C     -1.71254600     -4.21308400      0.91840300
C     -0.24674500     -4.51566100      1.48177600
C     -0.40654100     -5.75606200      0.65329600
C      0.48949800     -6.90437000      0.41688300
N     -1.58875300     -5.52244900      0.16007400
C      0.90339200     -3.57165800      1.26587200
C      1.49624900     -3.36445200      0.01376200
C      1.12966700     -4.08340000     -1.25687600
C      2.53930200     -2.44935200     -0.10615300
C      3.01089400     -1.74573300      0.97989800
C      2.44503700     -1.97033800      2.22009100
C      1.40599200     -2.87436800      2.37919700
C      0.87097700     -3.08629100      3.76581400
N     -2.77391700     -4.46571100      1.85984700
C     -3.92712000     -3.65423900      1.82903200
C     -4.00753800     -2.60393300      2.76009300
C     -2.86867400     -2.32011400      3.69328200
C     -5.13521900     -1.79989100      2.80605500
C     -6.19616900     -2.01481400      1.94809100
C     -6.12089000     -3.04238500      1.02827000
C     -5.00369500     -3.86177700      0.94876900
C     -4.99947000     -4.93391200     -0.10595800
H     -5.32228200     -7.55533500      1.29803200
H     -5.74056100     -7.12493600      4.43908800
H     -7.21324500     -8.34503400      5.96863500
H     -7.90674600    -10.65924500      5.44779800
H     -7.12984800    -11.72135600      3.35741100
H     -5.63843800    -10.50750800      1.83496000
H     -3.17101100     -9.30909200      3.69083500
H     -1.92508500     -9.61633400      5.75979300
H     -1.25725700     -7.67735900      7.13286200
H     -1.88035700     -5.39503100      6.41261400
H     -3.16966500     -5.07292100      4.32580100
H     -1.00886800     -2.82454800     -0.57666900
H     -1.93510400     -2.10187300      0.74171800
H     -2.76591600     -3.02192500     -0.51893300
H     -0.31581300     -4.76918400      2.54077600
H      0.49340200     -7.53702100      1.30552300
H      1.50941900     -6.56552700      0.24480900
H      0.12847100     -7.49652800     -0.42084800
H      1.94065900     -4.75751400     -1.53643200
H      0.21839700     -4.66302000     -1.18715500
H      1.01833500     -3.36288400     -2.06688600
H      2.98466500     -2.29778100     -1.07893700
H      3.81725300     -1.03715100      0.86596300
H      2.81898600     -1.43758100      3.08219100
H      1.01094100     -4.11862500      4.08813000
H     -0.18810000     -2.85011200      3.81968300
H      1.39704900     -2.44484400      4.46857000
H     -2.23833100     -3.20031100      3.77756600
H     -2.26590500     -1.49375800      3.31329700
H     -3.23867200     -2.03997900      4.67749900
H     -5.17716800     -0.99741700      3.52877900
H     -7.07370400     -1.38774600      1.99531100
H     -6.94360200     -3.21638800      0.34907300
H     -4.19582400     -5.67987800      0.05971400
H     -4.83886300     -4.49167400     -1.09030400
H     -5.95915200     -5.44779000     -0.12468300

*