!r2scan-3c opt freq 
%pal 
nprocs 8 
end 
%maxcore 12000
 
* XYZ 0 1 
O      8.55049600     -0.52823800     -0.68370800
C      7.66811700     -0.42082900      0.14312600
O      6.42707100     -0.22383200     -0.15880600
Ni      5.29557200     -0.48815700      1.23401400
N      6.70849600      0.02023800      2.32451500
C      7.93831400     -0.48466000      1.67401400
C      8.30962600     -1.86623400      2.16735100
C      8.86612700     -2.82083900      1.32528500
C      9.16008700     -4.08645900      1.80084500
C      8.91109300     -4.41507600      3.12218200
C      8.39251300     -3.45832400      3.97689600
C      8.10218200     -2.19293600      3.50274400
C      6.80071300      1.37015400      2.63683300
C      5.95835400      2.32132300      2.04331000
C      6.02253000      3.65127800      2.40359500
C      6.93160700      4.07371300      3.35998900
C      7.78486700      3.14916500      3.94153800
C      7.72732100      1.81665400      3.58871300
C      3.60810600      0.51774000      3.06626700
N      4.12683600     -0.80165000      2.68213300
C      2.97974900     -1.58986900      2.18583800
C      2.89303400     -1.45410400      0.71029600
N      3.88951800     -0.97521000      0.09979900
C      3.89662500     -0.91249000     -1.33220800
C      3.03487600      2.81254600     -1.48165700
C      1.95308600      2.09077500     -0.73115500
C      1.73361200      2.43857100      0.61492800
C      2.45291800      3.48050800      1.26115800
C      2.21872500      3.80826500      2.56215200
C      1.24577800      3.12009800      3.31392500
C      0.53372100      2.11386700      2.73922300
C      0.75141500      1.74191500      1.38739400
C      0.03299100      0.70733300      0.80063600
C      0.21482700      0.37096200     -0.53513300
C     -0.54503100     -0.67359300     -1.12386300
C     -0.40191800     -0.99640900     -2.43640300
C      0.51225000     -0.27847200     -3.23326300
C      1.26966400      0.71892700     -2.69918500
C      1.17360200      1.08416900     -1.32773600
C      4.65552100     -1.41560800      3.92787700
C      4.93404000     -2.90466000      4.02073200
C      4.85067900     -3.45668400      5.31984100
C      4.72809600     -2.67364700      6.50143800
C      4.63654500     -3.24292600      7.73631100
C      4.65110200     -4.64163800      7.89274200
C      4.79968100     -5.43238600      6.79712600
C      4.92517000     -4.87442600      5.49943100
C      5.12321700     -5.69625600      4.39687000
C      5.34550700     -5.16101400      3.13665300
C      5.64264800     -6.00857100      2.03820200
C      5.92051900     -5.50071600      0.80904500
C      5.93431000     -4.10413200      0.62631800
C      5.62413300     -3.26358100      1.65084600
C      5.28417900     -3.74121400      2.94428400
H      8.78343300      0.18949300      1.88024400
H      9.06826200     -2.56789500      0.29610500
H      9.58368300     -4.82300800      1.13329400
H      9.12946100     -5.40831100      3.48714500
H      8.21078000     -3.69871900      5.01532400
H      7.71060800     -1.44351000      4.17415600
H      5.27535600      1.98466700      1.25813200
H      5.37539100      4.37142100      1.92341000
H      6.98560900      5.11545500      3.63859100
H      8.50512400      3.47225500      4.67986300
H      8.39712600      1.10367800      4.04815000
H      2.80509700      0.42205500      3.81095000
H      4.39948600      1.12899300      3.49490700
H      3.19956000      1.02455100      2.19393600
H      3.13542100     -2.65011600      2.41655400
H      2.04142200     -1.28417400      2.66911900
H      3.15077300      2.45337700     -2.49740400
H      1.99832300     -1.81124600      0.19658400
H      2.96897600     -1.29927800     -1.76635000
H      4.05900000      0.11888100     -1.64208500
H      4.75334900     -1.48264500     -1.69426600
H      3.99147900      2.68397400     -0.97420200
H      2.81788800      3.87931200     -1.52970200
H      3.19449800      4.03089100      0.70658600
H      2.77668700      4.60523100      3.02992600
H      1.07121500      3.40287500      4.34136400
H     -0.22241800      1.57955300      3.29776200
H     -0.69461400      0.16495500      1.38931000
H     -1.25221900     -1.20043300     -0.49820900
H     -0.98654800     -1.78913300     -2.87903000
H      0.60615200     -0.52684100     -4.28011600
H      1.94889500      1.24654100     -3.34918800
H      5.57637100     -0.87048600      4.16331400
H      3.91333200     -1.19850000      4.70703400
H      4.75395900     -1.59726300      6.44428500
H      4.56173300     -2.61585900      8.61272200
H      4.56330400     -5.06990600      8.87990800
H      4.84352500     -6.50787400      6.89166600
H      5.13736000     -6.76877100      4.52975200
H      5.66342000     -7.07433000      2.21558500
H      6.15698200     -6.15106300     -0.01957700
H      6.22034800     -3.69741800     -0.33218300
H      5.71196500     -2.17784300      1.48792900

*