!xtb opt freq 
%pal 
nprocs 8 
end 
%maxcore 12000
 
* XYZ 0 1 
O      7.63997900     -6.92694800     -2.34788300
C      7.61451800     -5.84840100     -1.99847900
O      7.60609700     -4.74488500     -1.64847100
Ni      7.16143500     -3.19027300     -0.76142900
C      8.76155300     -2.28907800     -1.37126900
N      9.07642500     -3.03917900     -0.32959600
C      9.41737900     -2.52154600      0.89252700
C     10.18794300     -1.35452100      1.03441600
C     10.57661000     -0.94352400      2.29186700
C     10.19117000     -1.66105800      3.41859900
C      9.42167500     -2.81322100      3.28735400
C      9.05171100     -3.25431600      2.03686500
C      8.95471200     -2.70260400     -2.76217400
C      9.85526700     -3.72620300     -3.09233700
C     10.08359700     -4.04244600     -4.41617600
C      9.41088700     -3.36355100     -5.42414600
C      8.51477400     -2.35196700     -5.10792400
C      8.29387900     -2.01129900     -3.78762500
C      5.27815400     -6.35349600      1.15735300
C      4.54839500     -5.10023200      1.51712000
C      3.60993200     -5.05226600      2.50008200
C      2.95025100     -3.84597100      2.87002500
C      2.06746600     -3.81747800      3.95395900
C      1.50242100     -2.62663200      4.37338400
C      1.84377100     -1.43633900      3.73483200
C      2.69988600     -1.44231500      2.65574800
C      3.23542600     -2.64922900      2.16056700
C      4.13825500     -2.67999800      1.05142700
C      4.26761800     -1.56235200      0.18080000
C      5.59243600     -1.03316100     -0.12207100
O      6.69027300     -1.66604500      0.09967600
O      5.64113200     -4.03515900     -0.23327400
C      4.86599100     -3.91391600      0.76717200
C      5.67641000      0.35602500     -0.48406200
C      7.02832800      0.99193900     -0.56002200
C      4.54512700      1.06050100     -0.78288500
C      3.25231200      0.47708500     -0.76308000
C      2.12508600      1.16716500     -1.22772800
C      0.88831000      0.55329400     -1.24871800
C      0.75816800     -0.76642800     -0.81728800
C      1.84919900     -1.45805100     -0.33695600
C      3.11367000     -0.84455600     -0.26712300
H      8.71385600     -1.19365400     -1.23722400
H     10.52306900     -0.82297500      0.15640600
H     11.18899800     -0.06182800      2.40012700
H     10.50370100     -1.33229400      4.39717700
H      9.13324600     -3.36973900      4.16534900
H      8.46485600     -4.15513700      1.90517400
H     10.39108600     -4.22939900     -2.30104000
H     10.79484900     -4.81339900     -4.66786200
H      9.59503100     -3.61439600     -6.45681900
H      8.00119900     -1.82103700     -5.89396300
H      7.60766600     -1.21235700     -3.53898700
H      5.06128800     -7.14311300      1.86946700
H      6.35340400     -6.17512000      1.13909200
H      4.98060500     -6.68988500      0.16435200
H      3.37926000     -5.94644100      3.06111700
H      1.83863800     -4.73829700      4.46845800
H      0.81635400     -2.61604700      5.20560700
H      1.43918400     -0.50168900      4.09011400
H      2.98327300     -0.50650700      2.19946500
H      7.46802400      0.83549200     -1.54546900
H      6.94900500      2.06339000     -0.40079100
H      7.69240700      0.56936800      0.19112100
H      4.63482800      2.08802400     -1.10602600
H      2.23784400      2.18108100     -1.57990000
H      0.02430000      1.08879600     -1.60925600
H     -0.20411000     -1.25180800     -0.86219700
H      1.74185000     -2.48914500     -0.03565700

*