!xtb opt freq 
%pal 
nprocs 8 
end 
%maxcore 12000
 
* XYZ 0 1 
O      0.63981300     -5.92779000      6.30928600
C     -0.18582800     -5.20230100      6.02680900
O     -1.00264900     -4.43313300      5.74240100
Ni     -2.57368700     -3.51745900      5.44242200
C     -3.47263800     -5.07047800      6.18814900
N     -4.11645200     -5.19691400      5.06494000
C     -4.53605100     -6.35514900      4.46931200
C     -5.06000700     -7.42264000      5.22554500
C     -5.62597400     -8.50559700      4.59164000
C     -5.65681800     -8.57456400      3.20310700
C     -5.15373000     -7.52181600      2.44673500
C     -4.62142400     -6.41262200      3.06689400
C     -2.82711500     -6.14444200      6.95724000
C     -2.24554500     -7.25655100      6.33172600
C     -1.65889900     -8.25060400      7.08776000
C     -1.63878600     -8.15552000      8.47317500
C     -2.19063500     -7.04946900      9.10165500
C     -2.76635500     -6.04131700      8.35184300
N     -1.63228000     -2.01733000      4.73932700
C     -0.58873000     -1.73303800      5.75652800
C     -2.50826300     -0.81316100      4.66611400
C     -3.72508600     -1.12209800      5.50889400
N     -4.15615200     -2.50351900      5.18227100
C     -4.56833300     -2.59246800      3.76552300
C     -5.38574600     -2.77122500      6.00244800
C     -6.56619100     -1.86549700      5.70330300
C     -6.74998000     -0.69496300      6.43272900
C     -7.85137900      0.11092100      6.19736100
C     -8.78117400     -0.24643900      5.23629400
C     -8.61857400     -1.42313400      4.52450600
C     -7.51898300     -2.23099800      4.75856900
C     -0.94421300     -2.20025900      3.42122800
C     -0.44476300     -3.60694300      3.22132100
C     -1.37705200     -4.62231500      3.00278200
C     -0.95913100     -5.93173200      2.83319400
C      0.39230000     -6.23691200      2.87957900
C      1.32283200     -5.23053600      3.08439500
C      0.90774600     -3.91947400      3.25726800
H     -3.62659200     -4.15718100      6.81557600
H     -5.07061700     -7.35617900      6.30271300
H     -6.04855600     -9.30423700      5.18075000
H     -6.08200600     -9.43643600      2.71429300
H     -5.18756500     -7.56764800      1.36955200
H     -4.23120800     -5.59989300      2.47445600
H     -2.24852400     -7.32987300      5.25335500
H     -1.21578700     -9.10282000      6.59795400
H     -1.18940600     -8.94046400      9.05996500
H     -2.17111300     -6.97164800     10.17705400
H     -3.20357900     -5.18713800      8.85052200
H     -0.15139100     -0.74584600      5.58505300
H     -1.01461200     -1.74213700      6.76437900
H      0.22432900     -2.45403500      5.69955000
H     -1.99581900      0.07922300      5.03179400
H     -2.80421000     -0.61540800      3.63612300
H     -4.53759800     -0.41336100      5.31696600
H     -3.47764300     -1.07581700      6.57519300
H     -5.08479900     -3.53554700      3.60559400
H     -5.25694400     -1.77861100      3.52785600
H     -3.71996400     -2.53941700      3.08870000
H     -5.70263500     -3.79928600      5.81741200
H     -5.13313100     -2.64664700      7.05914600
H     -6.05246300     -0.41754200      7.21021400
H     -7.98438500      1.01156100      6.77542200
H     -9.63838900      0.38175300      5.05423800
H     -9.35278600     -1.72131100      3.79319400
H     -7.42067900     -3.15976900      4.21625400
H     -1.64859700     -1.97498000      2.61698300
H     -0.11662200     -1.48890200      3.34615500
H     -2.43145800     -4.37503700      2.91574100
H     -1.68451200     -6.70803300      2.63912600
H      0.72206500     -7.25308200      2.73399700
H      2.37527700     -5.46439000      3.09859200
H      1.64108800     -3.13934900      3.39763500

*