!xtb opt freq 
%pal 
nprocs 8 
end 
%maxcore 12000
 
* XYZ 0 1 
O      1.75530700      6.73332100      7.95381600
C      1.39409600      6.54630500      6.86193900
O      1.79728500      6.29549400      5.73099700
Ni      0.37559500      5.87500800      4.65886100
C     -0.64417200      7.25838400      5.54860600
N     -0.31340700      6.58751800      6.64482900
C     -1.16864000      6.00592500      7.55929300
C     -2.46961600      6.50015500      7.75929800
C     -3.26772100      5.94573700      8.73702100
C     -2.80054200      4.89224700      9.51500000
C     -1.51747200      4.39523000      9.31689300
C     -0.70246100      4.94266700      8.34881700
C      0.22792700      8.36654500      5.08863900
C      0.48475600      8.61072600      3.72950800
C      1.27389200      9.68121900      3.35153900
C      1.80203700     10.53278800      4.31124000
C      1.53965700     10.30882000      5.65586400
C      0.77753400      9.22744700      6.05096600
N     -1.08710100      5.35280200      3.58632500
C     -1.73785400      4.37624700      4.49849300
C     -0.52450500      4.63259700      2.40812700
C      0.62507700      3.76486800      2.87145500
N      1.44381300      4.58370600      3.79457400
C      2.41690600      5.37780200      3.01263200
C      2.17226000      3.68808500      4.74415800
C      2.98738800      2.60827800      4.06209100
C      2.45621600      1.34047100      3.85135000
C      3.22419800      0.34857600      3.26550600
C      4.52661400      0.61592600      2.87973100
C      5.06990800      1.86978400      3.10635100
C      4.30450400      2.86257000      3.69416300
C     -2.15971100      6.25242300      3.03614400
C     -3.18400000      5.56597800      2.15225300
C     -3.04064000      5.57638400      0.76814000
C     -4.00447200      5.00013000     -0.04089900
C     -5.12219400      4.40864400      0.52333300
C     -5.28253800      4.41160300      1.89850000
C     -4.32121200      4.99064200      2.70961100
H     -1.71099700      7.37881900      5.34139800
H     -2.81729100      7.36125000      7.20784300
H     -4.25275300      6.34967100      8.91109800
H     -3.42986300      4.47060200     10.28258000
H     -1.15329300      3.58210100      9.92431500
H      0.29122800      4.55137500      8.19246800
H      0.06263000      7.96682300      2.96543500
H      1.47363100      9.85724800      2.30621400
H      2.41092300     11.37107900      4.01250200
H      1.93039100     10.98015200      6.40419100
H      0.56267800      9.07488400      7.09815900
H     -2.37338600      3.69255700      3.93016700
H     -1.00207500      3.78204600      5.05168300
H     -2.37111100      4.89475600      5.21948700
H     -1.30082600      4.03298200      1.92324000
H     -0.17760500      5.37759500      1.68880000
H      1.22251300      3.41611800      2.02468900
H      0.25238000      2.88507500      3.39658700
H      3.03680800      5.97795300      3.67939600
H      1.89979500      6.04051500      2.31656600
H      3.06747700      4.71391700      2.43821900
H      2.84586000      4.29967800      5.34746800
H      1.43260800      3.21686400      5.40216900
H      1.45117400      1.10407500      4.17141100
H      2.80377000     -0.63355700      3.11817700
H      5.12117400     -0.15428000      2.41460500
H      6.09413300      2.07551500      2.83862900
H      4.75283100      3.82380400      3.89755000
H     -1.68125100      7.04066200      2.45263300
H     -2.70870900      6.71117200      3.85725700
H     -2.18601300      6.05509500      0.31257200
H     -3.88403600      5.02344200     -1.11214800
H     -5.87341500      3.96070700     -0.10710500
H     -6.16262100      3.97583300      2.34406200
H     -4.48163600      5.01449400      3.77792100

*