!xtb opt freq 
%pal 
nprocs 8 
end 
%maxcore 12000
 
* XYZ 0 1 
O     -8.91144500      3.79688700      3.14954400
C     -7.83646300      3.38407200      2.94535100
O     -7.23990800      2.48256300      2.37207000
Ni     -5.48092800      3.00325400      2.32521400
C     -5.62511900      3.62406500      4.15652700
N     -6.59551000      4.31558600      3.60812500
C     -6.73257400      5.69165900      3.39834000
C     -7.76856300      6.39250200      4.01013900
C     -7.94425200      7.72911700      3.69816700
C     -7.12696800      8.35218900      2.76770100
C     -6.11814700      7.63913500      2.13505900
C     -5.92066300      6.30900400      2.44587700
C     -4.60378800      4.10564400      5.06834100
C     -3.90584300      3.13361500      5.80863900
C     -3.04007300      3.50589600      6.81507700
C     -2.84127300      4.85015600      7.09858800
C     -3.50560000      5.82082400      6.36075600
C     -4.37200400      5.46160400      5.34939600
P     -3.35353200      3.52368100      2.14287800
C     -2.59976800      1.89133500      2.41352000
C     -3.42092800      0.83483700      2.80508500
C     -2.89593800     -0.43519500      2.95475300
C     -1.54963200     -0.65539200      2.70640600
C     -0.73100800      0.39097000      2.30733700
C     -1.24931800      1.66473200      2.15797700
C     -2.32114700      4.72819400      3.01448800
C     -1.45853700      4.31387800      4.02682500
C     -0.64022100      5.23840400      4.65000200
C     -0.68832000      6.57419400      4.28329300
C     -1.54973400      6.98905200      3.27868000
C     -2.36661100      6.07246900      2.64388700
C     -3.00133200      3.77544600      0.36846600
C     -1.88920100      4.42831800     -0.14516400
C     -1.69955500      4.46635600     -1.51940600
C     -2.60127500      3.85406900     -2.37669200
C     -3.70848100      3.18903100     -1.87093300
C     -3.90358200      3.15267800     -0.49768400
P     -5.31832100      2.29727300      0.25577000
C     -6.78972700      2.81819400     -0.64953400
C     -7.24804600      4.11627100     -0.42009900
C     -8.36251000      4.58007000     -1.08902500
C     -9.02005300      3.74987600     -1.98716300
C     -8.55924400      2.46329200     -2.22007200
C     -7.44667600      1.98433000     -1.54968800
C     -5.09042300      0.52465900      0.06420500
C     -6.13393800     -0.30641200      0.48044000
C     -5.99898100     -1.67658000      0.36672600
C     -4.82724800     -2.21713400     -0.14583300
C     -3.78612900     -1.38993900     -0.54207400
C     -3.90556900     -0.01668700     -0.43072900
H     -5.86151100      2.55410700      4.32450100
H     -8.40414800      5.89970500      4.72744900
H     -8.73335000      8.28296800      4.18118800
H     -7.28219100      9.39077800      2.52365600
H     -5.49816600      8.11735400      1.39268600
H     -5.15678100      5.71303200      1.94295600
H     -4.07003300      2.08426500      5.60680800
H     -2.52856000      2.74965300      7.38942500
H     -2.17521200      5.14098900      7.89551300
H     -3.35316400      6.86513500      6.58248500
H     -4.88545100      6.23188500      4.79762000
H     -4.49049000      1.00858800      2.98563200
H     -3.53153200     -1.25169400      3.26026100
H     -1.13788000     -1.64535600      2.82246100
H      0.31462400      0.21298900      2.11057000
H     -0.61480700      2.48083200      1.84305800
H     -1.41905600      3.27389600      4.31499200
H      0.04061400      4.91251300      5.42065700
H     -0.04933500      7.29118500      4.77405500
H     -1.57817600      8.02649200      2.98408400
H     -3.01833200      6.39645300      1.84496500
H     -1.18231600      4.91051800      0.51400800
H     -0.84147800      4.98149200     -1.92226500
H     -2.44606500      3.89866100     -3.44326700
H     -4.41718000      2.71103900     -2.53193100
H     -6.72390000      4.75098500      0.28985400
H     -8.72552200      5.57998000     -0.90883300
H     -9.89790500      4.10689400     -2.50226500
H     -9.07243800      1.82448000     -2.92194100
H     -7.09163800      0.97929000     -1.72526900
H     -7.03685600      0.13142500      0.88557800
H     -6.80386400     -2.32494000      0.67631300
H     -4.72457700     -3.28738700     -0.23405600
H     -2.87864200     -1.81649400     -0.93985200
H     -3.09495000      0.63043000     -0.73387700

*