!xtb opt freq 
%pal 
nprocs 8 
end 
%maxcore 12000
 
* XYZ 0 1 
O      4.68963600     -5.29699700     -5.39252200
C      4.14951900     -5.34175900     -4.35824200
O      4.29651400     -5.08097900     -3.17413700
Ni      2.68113800     -5.16309000     -2.31558100
C      2.24218900     -6.71672900     -3.38910000
N      2.53966900     -5.96073300     -4.42577500
C      1.70767800     -5.68460400     -5.49743300
C      0.72157100     -6.59867700     -5.89640700
C     -0.04959500     -6.33077200     -7.00732600
C      0.14011000     -5.15952300     -7.72967100
C      1.11997500     -4.25464900     -7.34160300
C      1.90324000     -4.50963200     -6.23516000
C      3.28615000     -7.50068100     -2.69016600
C      3.21957600     -7.75997900     -1.30969300
C      4.18069000     -8.54802400     -0.70184900
C      5.20484200     -9.10516700     -1.45310600
C      5.26661700     -8.87275000     -2.82036900
C      4.32986200     -8.06750000     -3.43743000
C      3.73590100     -2.96896800      1.07942300
C      2.92841400     -3.74714700      0.08963100
C      1.75599800     -4.33245000      0.57586300
C      0.75792900     -4.88605800     -0.24084200
C     -0.60420100     -4.97623600      0.36994900
N      1.00177800     -5.20139700     -1.49999800
C     -0.09092100     -5.50328700     -2.35223900
C     -0.40592600     -4.57475800     -3.36940700
C      0.38156700     -3.30933600     -3.50339900
C     -1.49469700     -4.81275900     -4.18935200
C     -2.25946600     -5.95971400     -4.04124700
C     -1.93538800     -6.87977300     -3.06011800
C     -0.85996200     -6.67948600     -2.20512800
C     -0.55191100     -7.73970800     -1.19421300
N      3.22134800     -3.75121600     -1.20772500
C      4.40966800     -3.11328200     -1.60970100
C      5.67013400     -3.67705200     -1.26393300
C      5.78293400     -4.97193300     -0.52607300
C      6.82328000     -3.04552900     -1.69750500
C      6.76648400     -1.88370700     -2.44991200
C      5.53406900     -1.32673700     -2.76613100
C      4.34981600     -1.92501700     -2.36900400
C      3.05022800     -1.24463500     -2.66247500
H      1.23726900     -7.14387800     -3.34670400
H      0.60551500     -7.53748300     -5.37623000
H     -0.78936200     -7.04812600     -7.32573800
H     -0.46260800     -4.96097000     -8.60169200
H      1.27578600     -3.35095000     -7.90925000
H      2.66136600     -3.80316800     -5.93455300
H      2.40811500     -7.35845700     -0.71170800
H      4.12502100     -8.73557200      0.35909800
H      5.94662600     -9.72665800     -0.97739200
H      6.04740500     -9.32323500     -3.41259900
H      4.37389200     -7.91288900     -4.50554200
H      3.07883500     -2.42788000      1.75636500
H      4.32612900     -3.65397700      1.68718300
H      4.40919700     -2.26512800      0.59941300
H      1.52302000     -4.19216600      1.61903000
H     -0.77956300     -4.11231000      1.00673300
H     -1.38956800     -5.03047500     -0.37742900
H     -0.66851300     -5.85827700      1.00666500
H      0.07946900     -2.60269800     -2.72953000
H      0.19764200     -2.84793100     -4.46923700
H      1.46412000     -3.49244000     -3.39505200
H     -1.75416600     -4.08576800     -4.94248900
H     -3.10386800     -6.13434200     -4.68787300
H     -2.52643300     -7.77499900     -2.94452600
H     -1.41540200     -7.89405500     -0.54891100
H     -0.36346100     -8.68990500     -1.69367400
H      0.30596100     -7.50009400     -0.57534800
H      6.49701900     -5.61922100     -1.03170400
H      6.16950600     -4.79480500      0.47780300
H      4.83160100     -5.50129000     -0.45254100
H      7.77994800     -3.48136300     -1.45334800
H      7.67535900     -1.40834400     -2.78262000
H      5.49137600     -0.39637500     -3.31166200
H      3.15392000     -0.17335200     -2.50513500
H      2.24968300     -1.61296300     -2.02766100
H      2.77710000     -1.38676000     -3.70765000

*