!xtb opt freq 
%pal 
nprocs 8 
end 
%maxcore 12000
 
* XYZ 0 1 
O     -3.55849600     -7.28883200     -0.92028400
C     -3.76425900     -6.19510900     -0.52010500
O     -3.26231900     -5.06926500     -0.72150600
Ni     -3.84763000     -4.08712100      0.70982900
C     -5.60114200     -4.86222800      0.39823600
N     -4.90563500     -6.01870700      0.52890600
C     -5.33866900     -7.20639300      1.16123000
C     -6.44840100     -7.88776000      0.66643300
C     -6.79821400     -9.09988700      1.22946400
C     -6.06195600     -9.63005300      2.27750500
C     -4.95213400     -8.95393300      2.75699700
C     -4.58128200     -7.74691200      2.19267600
C     -7.01126300     -4.79050000      0.78515700
C     -7.56693400     -5.39548900      1.92371500
C     -8.92995300     -5.37043400      2.13566900
C     -9.77543800     -4.76656700      1.21513100
C     -9.24543300     -4.19940800      0.06745000
C     -7.88091400     -4.19580600     -0.14073700
C     -1.45731100     -4.70053300      1.50030400
N     -2.06930400     -3.46209600      0.94728200
C     -2.02555000     -2.42229200      1.99061300
C     -3.13398200     -2.75038600      2.96959100
N     -4.38228500     -3.04932800      2.20122600
C     -5.26264800     -3.72748600      3.17220700
C     -4.99524600     -1.70950500      1.88648700
C     -6.20185500     -1.63945600      0.97912100
C     -7.48773100     -1.41536800      1.51224500
C     -7.79830000     -1.45901200      2.89751900
C     -9.06687500     -1.25262600      3.35859600
C    -10.12308400     -0.97219900      2.47422200
C     -9.87220300     -0.89132600      1.13741500
C     -8.56950900     -1.10679200      0.62171300
C     -8.33302700     -0.99767000     -0.74408600
C     -7.07681800     -1.24930700     -1.28765800
C     -6.85867400     -1.18032900     -2.68641800
C     -5.63951700     -1.46831000     -3.22499600
C     -4.57584400     -1.83625800     -2.38100700
C     -4.74781500     -1.89553000     -1.02600200
C     -5.99639900     -1.59849700     -0.41633300
C     -1.29676100     -3.01457500     -0.27116500
C      0.20007800     -3.18120000     -0.16869300
C      1.00256300     -2.15181100      0.37652000
C      0.52397800     -0.85772600      0.70316400
C      1.34035600      0.10241200      1.24054800
C      2.69315500     -0.16148000      1.49727800
C      3.21207600     -1.38222400      1.16432800
C      2.40101500     -2.38780100      0.58747000
C      2.95903900     -3.60585300      0.20584400
C      2.20273600     -4.58568900     -0.43188000
C      2.81586100     -5.78109700     -0.87746800
C      2.09240200     -6.74774300     -1.52076700
C      0.72409400     -6.54496100     -1.74861900
C      0.09703800     -5.40308100     -1.32054300
C      0.79896000     -4.37711300     -0.63440300
H     -5.43099700     -4.34090700     -0.56693600
H     -7.00250600     -7.48413800     -0.16660500
H     -7.64514300     -9.63860800      0.83462900
H     -6.34492300    -10.57575400      2.71090300
H     -4.36790200     -9.36976800      3.56250500
H     -3.70626700     -7.22211800      2.55198100
H     -6.94035500     -5.89296100      2.64685900
H     -9.33723000     -5.83440000      3.01980900
H    -10.83972700     -4.75164000      1.38675300
H     -9.89624600     -3.76020300     -0.67150000
H     -7.48605900     -3.77000000     -1.04986100
H     -1.27288100     -5.42033600      0.70476300
H     -0.50268100     -4.47742300      1.98396200
H     -2.11445900     -5.16282200      2.24513000
H     -1.04938000     -2.38777200      2.48578100
H     -2.20590400     -1.44553800      1.54005500
H     -3.30346000     -1.92263800      3.66571900
H     -2.86687200     -3.62732200      3.56226400
H     -6.29413400     -3.69719900      2.83648300
H     -5.20806900     -3.22705500      4.14354400
H     -4.94901700     -4.76339900      3.31424300
H     -5.25625600     -1.24383200      2.84083100
H     -4.22252500     -1.08546900      1.43522600
H     -7.02813600     -1.65154000      3.62678900
H     -9.26450000     -1.29511200      4.41853600
H    -11.11506100     -0.80763000      2.86295300
H    -10.66243100     -0.65618100      0.44107300
H     -9.14436400     -0.71846700     -1.39964300
H     -7.68752800     -0.90029200     -3.31799900
H     -5.47998900     -1.41712900     -4.28981000
H     -3.61576500     -2.06865000     -2.81601600
H     -3.88906000     -2.16296200     -0.40522600
H     -1.66361400     -3.59211400     -1.11823300
H     -1.54991800     -1.97150200     -0.45838100
H     -0.49396300     -0.58102400      0.48194200
H      0.94210000      1.08139500      1.45856200
H      3.31676600      0.60445500      1.92923400
H      4.25862500     -1.59589700      1.31785000
H      4.00886000     -3.78366100      0.38621800
H      3.87432800     -5.90595000     -0.70799300
H      2.56544400     -7.65377100     -1.86395000
H      0.15509100     -7.29669800     -2.27355700
H     -0.95142000     -5.30189900     -1.55095900

*